sat
(:max-memory         18.43
 :memory             18.33
 :nlsat-arith-var    3
 :nlsat-atoms        12
 :nlsat-bool-var     1
 :nlsat-clauses      12
 :nlsat-propagations 10
 :nlsat-stages       4
 :num-allocs         50980
 :rlimit-count       1472
 :time               0.00
 :total-time         0.01)
